34 16
5 105
2 222
6 418
13 637
7 820
10 510
10 604
10 552
13 823
5 790
13 474
11 852
1 976
12 373
14 982
9 708
3 985
4 850
2 945
11 265
1 461
6 657
13 559
10 937
7 585
2 727
5 416
2 829
13 498
7 639
13 586
1 749
14 530
15 883
